12
0 84 46 83 93 19 14 50 35 56 23 56 
83 0 68 50 75 17 12 3 38 55 6 38 
44 73 0 68 72 33 96 8 64 36 81 47 
7 74 79 0 2 9 42 95 89 9 1 15 
14 35 40 40 0 78 44 15 17 54 1 65 
73 69 84 34 100 0 16 23 63 1 50 46 
20 50 56 76 90 77 0 84 33 32 6 58 
2 59 68 3 84 89 20 0 30 17 62 11 
11 48 100 40 21 76 41 42 0 91 96 22 
87 31 94 71 41 11 9 56 32 0 64 51 
90 52 87 54 89 28 37 93 100 24 0 10 
2 16 55 33 31 66 48 35 89 44 1 0 
